c This is a random SAT instance with 10 variables and 20 clauses
p cnf 10 20
-2 -9 -1 -3 -10 9 0
10 -10 0
7 2 3 6 0
9 -4 6 -8 8 -7 0
2 -4 -2 -3 -10 8 9 3 6 0
-9 2 -2 8 9 0
6 8 0
-6 0
7 -9 2 6 0
2 10 3 -3 5 -1 -2 -4 0
-4 -10 -1 10 -6 -9 -5 1 0
1 4 9 -10 -3 -9 -6 0
-2 -3 -10 -7 10 2 8 5 7 0
-2 6 -3 1 10 -6 -1 -4 9 0
-1 -6 -4 9 0
-8 0
-6 -8 -10 3 6 -3 9 0
-3 9 -6 8 0
4 -7 -5 7 10 1 8 0
3 0